; benchmark generated from python API
(set-info :status unknown)
(declare-datatypes ((IntState 0)) (((Mk1 (val1 Int)) (Mk2 (val2 Int)))))
 (declare-fun c_main_~y~0 () Int)
(declare-fun c_main_~x~0 () Int)
(declare-fun c_main_~z~0 () Int)
(assert
 (let (($x58 (exists ((|v_main_#t~nondet1_5_st| IntState) (val!131 Int) )(let (($x112 (not (= |v_main_#t~nondet1_5_st| (Mk1 val!131)))))
 (and $x112 (= c_main_~y~0 (* 2097152 (val2 |v_main_#t~nondet1_5_st|))))))
 ))
 (let (($x11 (exists ((|v_main_#t~nondet0_5_st| IntState) (val!130 Int) )(let (($x112 (not (= |v_main_#t~nondet0_5_st| (Mk1 val!130)))))
 (and $x112 (= (* 1048576 (val2 |v_main_#t~nondet0_5_st|)) c_main_~x~0))))
 ))
 (let (($x223 (exists ((|v_main_#t~nondet2_5_st| IntState) (val!129 Int) )(let (($x112 (not (= |v_main_#t~nondet2_5_st| (Mk1 val!129)))))
 (and $x112 (= (* 4194304 (val2 |v_main_#t~nondet2_5_st|)) c_main_~z~0))))
 ))
 (let (($x140 (exists ((|v_main_#t~nondet2_7| Int) )(exists ((|v_main_#t~nondet2_8| Int) )(exists ((|v_main_#t~nondet2_5| Int) )(exists ((|v_main_#t~nondet2_6| Int) )(= (+ (* 4194304 |v_main_#t~nondet2_7|) (* 4194304 |v_main_#t~nondet2_8|) (* 4194304 |v_main_#t~nondet2_5|) (* 4194304 |v_main_#t~nondet2_6|)) c_main_~z~0))
 )
 )
 )
 ))
 (let (($x19 (exists ((|v_main_#t~nondet0_7| Int) )(exists ((|v_main_#t~nondet0_8| Int) )(exists ((|v_main_#t~nondet0_5| Int) )(exists ((|v_main_#t~nondet0_6| Int) )(= (+ (* 1048576 |v_main_#t~nondet0_7|) (* 1048576 |v_main_#t~nondet0_8|) (* 1048576 |v_main_#t~nondet0_5|) (* 1048576 |v_main_#t~nondet0_6|)) c_main_~x~0))
 )
 )
 )
 ))
 (let (($x46 (exists ((|v_main_#t~nondet1_8| Int) )(exists ((|v_main_#t~nondet1_6| Int) )(exists ((|v_main_#t~nondet1_7| Int) )(exists ((|v_main_#t~nondet1_5| Int) )(= (+ (* 2097152 |v_main_#t~nondet1_8|) (* 2097152 |v_main_#t~nondet1_6|) (* 2097152 |v_main_#t~nondet1_7|) (* 2097152 |v_main_#t~nondet1_5|)) c_main_~y~0))
 )
 )
 )
 ))
 (and (and $x46 $x19 $x140) (not (and $x223 $x11 $x58))))))))))
(check-sat)
